c Random generated cnf formula, satisfiable: true
p cnf 10 50
-5 -9 3 0
7 -5 -1 0
-2 -8 -9 0
8 -1 -2 0
-5 1 4 0
1 10 9 0
9 6 -10 0
1 -7 -10 0
-5 -9 -8 0
5 -3 8 0
-6 5 8 0
-5 -4 2 0
4 -5 -3 0
6 -9 -7 0
9 -6 7 0
5 -7 -4 0
-6 7 -10 0
8 7 -5 0
7 5 -9 0
-4 2 5 0
9 -8 7 0
10 -2 7 0
-3 2 -9 0
4 8 2 0
-3 5 -7 0
10 -5 4 0
2 -7 3 0
8 1 -9 0
8 7 5 0
9 6 -4 0
6 8 -9 0
4 -9 -1 0
3 -1 7 0
6 10 5 0
7 -10 -6 0
-9 6 -10 0
-4 8 7 0
9 4 8 0
6 -7 4 0
7 -9 8 0
-9 -8 7 0
-4 6 -9 0
-4 -6 -2 0
-9 6 -8 0
9 7 -5 0
-9 -10 -4 0
-9 -4 3 0
10 2 4 0
6 -1 -10 0
-4 6 -9 0
